
  32    4
  10   10   10   10

   0   0   0   0   0   2 2 4 
   3  10  10  10  10   1 3 
   5  10  10  10  10   1 5 
   4  10  10  10  10   1 5 
   7  10  10  10  10   2 8 6 
   9  10  10  10  10   1 7 
   6  10  10  10  10   1 9 
   9  10  10  10  10   1 9 
   2  10  10  10  10   1 10 
   2  10  10  10  10   2 13 11 
   1  10  10  10  10   1 12 
  10  10  10  10  10   1 14 
   7  10  10  10  10   1 14 
   5  10  10  10  10   1 15 
   4  10  10  10  10   2 17 16 
   4  10  10  10  10   2 19 18 
   3  10  10  10  10   1 18 
   2  10  10  10  10   1 20 
   3  10  10  10  10   1 20 
   7  10  10  10  10   1 21 
   7  10  10  10  10   1 22 
   4  10  10  10  10   1 23 
   9  10  10  10  10   1 24 
   4  10  10  10  10   1 25 
   6  10  10  10  10   1 26 
   9  10  10  10  10   1 27 
   1  10  10  10  10   2 29 28 
   5  10  10  10  10   1 30 
   6  10  10  10  10   1 30 
   4  10  10  10  10   1 31 
   8  10  10  10  10   1 32
   0   0   0   0   0   0 
